<number of tasks>
50

<cycle time>
1000

<order strength>
0.197


<task times>
1 493
2 682
3 476
4 381
5 578
6 510
7 490
8 345
9 545
10 462
11 516
12 368
13 412
14 694
15 393
16 436
17 445
18 618
19 760
20 470
21 435
22 509
23 602
24 308
25 671
26 749
27 569
28 521
29 389
30 407
31 429
32 534
33 349
34 580
35 543
36 502
37 660
38 345
39 274
40 348
41 446
42 299
43 442
44 233
45 573
46 577
47 566
48 514
49 394
50 362

<precedence relations>
1,7
2,6
2,8
2,10
3,5
3,27
4,9
4,11
5,35
6,35
7,17
8,14
9,12
9,13
9,15
9,16
9,19
10,18
12,35
13,35
14,23
15,20
16,22
17,26
17,27
18,21
18,25
19,24
20,29
21,30
22,28
24,31
25,33
26,34
26,36
27,32
28,35
29,36
30,37
33,40
34,38
34,39
35,41
35,42
35,43
35,44
35,45
35,46
41,47
42,49
42,50
44,48

<end>
